NAME : rnd1_50.tsp.tsp.optbc.tour
TYPE : TOUR
DIMENSION : 50
TOUR_SECTION
1
33
14
10
25
12
11
36
24
39
50
15
23
35
46
47
38
19
42
7
26
4
48
17
27
41
2
30
34
37
45
49
28
44
21
9
16
32
40
31
43
6
20
18
22
3
29
5
8
13
-1